\ENCODING=ISO-8859-1
\Problem name: MDHFVRP

Minimize
 obj: X(0,1,0,3) + X(0,1,0,4) + X(0,1,1,3) + X(0,1,1,4) + X(0,2,0,3)
      + X(0,2,0,4) + X(0,2,1,3) + X(0,2,1,4) + X(1,0,0,3) + X(1,0,0,4)
      + X(1,0,1,3) + X(1,0,1,4) + X(1,2,0,3) + X(1,2,0,4) + X(1,2,1,3)
      + X(1,2,1,4) + X(2,0,0,3) + X(2,0,0,4) + X(2,0,1,3) + X(2,0,1,4)
      + X(2,1,0,3) + X(2,1,0,4) + X(2,1,1,3) + X(2,1,1,4) + 0 X(3,3,0,3)
      + 0 X(3,3,0,4) + 0 X(3,3,1,3) + 0 X(3,3,1,4) + 0 X(3,4,0,3)
      + 0 X(3,4,0,4) + 0 X(3,4,1,3) + 0 X(3,4,1,4) + 0 X(4,3,0,3)
      + 0 X(4,3,0,4) + 0 X(4,3,1,3) + 0 X(4,3,1,4) + 0 X(4,4,0,3)
      + 0 X(4,4,0,4) + 0 X(4,4,1,3) + 0 X(4,4,1,4)
Subject To
 c1_0: X(0,0,0,3) + X(0,0,0,4) + X(0,0,1,3) + X(0,0,1,4) + X(1,0,0,3)
       + X(1,0,0,4) + X(1,0,1,3) + X(1,0,1,4) + X(2,0,0,3) + X(2,0,0,4)
       + X(2,0,1,3) + X(2,0,1,4) + X(3,0,0,3) + X(3,0,0,4) + X(3,0,1,3)
       + X(3,0,1,4) + X(4,0,0,3) + X(4,0,0,4) + X(4,0,1,3) + X(4,0,1,4)  = 1
 c1_1: X(0,0,0,3) + X(0,0,0,4) + X(0,0,1,3) + X(0,0,1,4) + X(0,1,0,3)
       + X(0,1,0,4) + X(0,1,1,3) + X(0,1,1,4) + X(1,0,0,3) + X(1,0,0,4)
       + X(1,0,1,3) + X(1,0,1,4) + X(1,1,0,3) + X(1,1,0,4) + X(1,1,1,3)
       + X(1,1,1,4) + X(2,0,0,3) + X(2,0,0,4) + X(2,0,1,3) + X(2,0,1,4)
       + X(2,1,0,3) + X(2,1,0,4) + X(2,1,1,3) + X(2,1,1,4) + X(3,0,0,3)
       + X(3,0,0,4) + X(3,0,1,3) + X(3,0,1,4) + X(3,1,0,3) + X(3,1,0,4)
       + X(3,1,1,3) + X(3,1,1,4) + X(4,0,0,3) + X(4,0,0,4) + X(4,0,1,3)
       + X(4,0,1,4) + X(4,1,0,3) + X(4,1,0,4) + X(4,1,1,3) + X(4,1,1,4)  = 1
 c1_2: X(0,0,0,3) + X(0,0,0,4) + X(0,0,1,3) + X(0,0,1,4) + X(0,1,0,3)
       + X(0,1,0,4) + X(0,1,1,3) + X(0,1,1,4) + X(0,2,0,3) + X(0,2,0,4)
       + X(0,2,1,3) + X(0,2,1,4) + X(1,0,0,3) + X(1,0,0,4) + X(1,0,1,3)
       + X(1,0,1,4) + X(1,1,0,3) + X(1,1,0,4) + X(1,1,1,3) + X(1,1,1,4)
       + X(1,2,0,3) + X(1,2,0,4) + X(1,2,1,3) + X(1,2,1,4) + X(2,0,0,3)
       + X(2,0,0,4) + X(2,0,1,3) + X(2,0,1,4) + X(2,1,0,3) + X(2,1,0,4)
       + X(2,1,1,3) + X(2,1,1,4) + X(2,2,0,3) + X(2,2,0,4) + X(2,2,1,3)
       + X(2,2,1,4) + X(3,0,0,3) + X(3,0,0,4) + X(3,0,1,3) + X(3,0,1,4)
       + X(3,1,0,3) + X(3,1,0,4) + X(3,1,1,3) + X(3,1,1,4) + X(3,2,0,3)
       + X(3,2,0,4) + X(3,2,1,3) + X(3,2,1,4) + X(4,0,0,3) + X(4,0,0,4)
       + X(4,0,1,3) + X(4,0,1,4) + X(4,1,0,3) + X(4,1,0,4) + X(4,1,1,3)
       + X(4,1,1,4) + X(4,2,0,3) + X(4,2,0,4) + X(4,2,1,3) + X(4,2,1,4)  = 1
 c3_0: 2 X(0,0,0,3) + 2 X(0,0,0,4) + 2 X(0,0,1,3) + 2 X(0,0,1,4) + 2 X(0,1,0,3)
       + 2 X(0,1,0,4) + 2 X(0,1,1,3) + 2 X(0,1,1,4) + 2 X(0,2,0,3)
       + 2 X(0,2,0,4) + 2 X(0,2,1,3) + 2 X(0,2,1,4) + X(0,3,0,3) + X(0,3,0,4)
       + X(0,3,1,3) + X(0,3,1,4) + X(0,4,0,3) + X(0,4,0,4) + X(0,4,1,3)
       + X(0,4,1,4) + X(1,0,0,3) + X(1,0,0,4) + X(1,0,1,3) + X(1,0,1,4)
       + X(1,1,0,3) + X(1,1,0,4) + X(1,1,1,3) + X(1,1,1,4) + X(1,2,0,3)
       + X(1,2,0,4) + X(1,2,1,3) + X(1,2,1,4) + X(2,0,0,3) + X(2,0,0,4)
       + X(2,0,1,3) + X(2,0,1,4) + X(2,1,0,3) + X(2,1,0,4) + X(2,1,1,3)
       + X(2,1,1,4) + X(2,2,0,3) + X(2,2,0,4) + X(2,2,1,3) + X(2,2,1,4)
       + X(3,0,0,3) + X(3,0,0,4) + X(3,0,1,3) + X(3,0,1,4) + X(3,1,0,3)
       + X(3,1,0,4) + X(3,1,1,3) + X(3,1,1,4) + X(3,2,0,3) + X(3,2,0,4)
       + X(3,2,1,3) + X(3,2,1,4) + X(4,0,0,3) + X(4,0,0,4) + X(4,0,1,3)
       + X(4,0,1,4) + X(4,1,0,3) + X(4,1,0,4) + X(4,1,1,3) + X(4,1,1,4)
       + X(4,2,0,3) + X(4,2,0,4) + X(4,2,1,3) + X(4,2,1,4)  = 1
 c3_1: 2 X(0,0,0,3) + 2 X(0,0,0,4) + 2 X(0,0,1,3) + 2 X(0,0,1,4) + 2 X(0,1,0,3)
       + 2 X(0,1,0,4) + 2 X(0,1,1,3) + 2 X(0,1,1,4) + 2 X(0,2,0,3)
       + 2 X(0,2,0,4) + 2 X(0,2,1,3) + 2 X(0,2,1,4) + X(0,3,0,3) + X(0,3,0,4)
       + X(0,3,1,3) + X(0,3,1,4) + X(0,4,0,3) + X(0,4,0,4) + X(0,4,1,3)
       + X(0,4,1,4) + 2 X(1,0,0,3) + 2 X(1,0,0,4) + 2 X(1,0,1,3) + 2 X(1,0,1,4)
       + 2 X(1,1,0,3) + 2 X(1,1,0,4) + 2 X(1,1,1,3) + 2 X(1,1,1,4)
       + 2 X(1,2,0,3) + 2 X(1,2,0,4) + 2 X(1,2,1,3) + 2 X(1,2,1,4) + X(1,3,0,3)
       + X(1,3,0,4) + X(1,3,1,3) + X(1,3,1,4) + X(1,4,0,3) + X(1,4,0,4)
       + X(1,4,1,3) + X(1,4,1,4) + X(2,0,0,3) + X(2,0,0,4) + X(2,0,1,3)
       + X(2,0,1,4) + X(2,1,0,3) + X(2,1,0,4) + X(2,1,1,3) + X(2,1,1,4)
       + X(2,2,0,3) + X(2,2,0,4) + X(2,2,1,3) + X(2,2,1,4) + X(3,0,0,3)
       + X(3,0,0,4) + X(3,0,1,3) + X(3,0,1,4) + X(3,1,0,3) + X(3,1,0,4)
       + X(3,1,1,3) + X(3,1,1,4) + X(3,2,0,3) + X(3,2,0,4) + X(3,2,1,3)
       + X(3,2,1,4) + X(4,0,0,3) + X(4,0,0,4) + X(4,0,1,3) + X(4,0,1,4)
       + X(4,1,0,3) + X(4,1,0,4) + X(4,1,1,3) + X(4,1,1,4) + X(4,2,0,3)
       + X(4,2,0,4) + X(4,2,1,3) + X(4,2,1,4)  = 1
 c3_2: 2 X(0,0,0,3) + 2 X(0,0,0,4) + 2 X(0,0,1,3) + 2 X(0,0,1,4) + 2 X(0,1,0,3)
       + 2 X(0,1,0,4) + 2 X(0,1,1,3) + 2 X(0,1,1,4) + 2 X(0,2,0,3)
       + 2 X(0,2,0,4) + 2 X(0,2,1,3) + 2 X(0,2,1,4) + X(0,3,0,3) + X(0,3,0,4)
       + X(0,3,1,3) + X(0,3,1,4) + X(0,4,0,3) + X(0,4,0,4) + X(0,4,1,3)
       + X(0,4,1,4) + 2 X(1,0,0,3) + 2 X(1,0,0,4) + 2 X(1,0,1,3) + 2 X(1,0,1,4)
       + 2 X(1,1,0,3) + 2 X(1,1,0,4) + 2 X(1,1,1,3) + 2 X(1,1,1,4)
       + 2 X(1,2,0,3) + 2 X(1,2,0,4) + 2 X(1,2,1,3) + 2 X(1,2,1,4) + X(1,3,0,3)
       + X(1,3,0,4) + X(1,3,1,3) + X(1,3,1,4) + X(1,4,0,3) + X(1,4,0,4)
       + X(1,4,1,3) + X(1,4,1,4) + 2 X(2,0,0,3) + 2 X(2,0,0,4) + 2 X(2,0,1,3)
       + 2 X(2,0,1,4) + 2 X(2,1,0,3) + 2 X(2,1,0,4) + 2 X(2,1,1,3)
       + 2 X(2,1,1,4) + 2 X(2,2,0,3) + 2 X(2,2,0,4) + 2 X(2,2,1,3)
       + 2 X(2,2,1,4) + X(2,3,0,3) + X(2,3,0,4) + X(2,3,1,3) + X(2,3,1,4)
       + X(2,4,0,3) + X(2,4,0,4) + X(2,4,1,3) + X(2,4,1,4) + X(3,0,0,3)
       + X(3,0,0,4) + X(3,0,1,3) + X(3,0,1,4) + X(3,1,0,3) + X(3,1,0,4)
       + X(3,1,1,3) + X(3,1,1,4) + X(3,2,0,3) + X(3,2,0,4) + X(3,2,1,3)
       + X(3,2,1,4) + X(4,0,0,3) + X(4,0,0,4) + X(4,0,1,3) + X(4,0,1,4)
       + X(4,1,0,3) + X(4,1,0,4) + X(4,1,1,3) + X(4,1,1,4) + X(4,2,0,3)
       + X(4,2,0,4) + X(4,2,1,3) + X(4,2,1,4)  = 1
 c4_0:  = 0
 c4_1:  = 0
Bounds
 0 <= X(0,0,0,3) <= 1
 0 <= X(0,0,0,4) <= 1
 0 <= X(0,0,1,3) <= 1
 0 <= X(0,0,1,4) <= 1
 0 <= X(0,1,0,3) <= 1
 0 <= X(0,1,0,4) <= 1
 0 <= X(0,1,1,3) <= 1
 0 <= X(0,1,1,4) <= 1
 0 <= X(0,2,0,3) <= 1
 0 <= X(0,2,0,4) <= 1
 0 <= X(0,2,1,3) <= 1
 0 <= X(0,2,1,4) <= 1
 0 <= X(0,3,0,3) <= 1
 0 <= X(0,3,0,4) <= 1
 0 <= X(0,3,1,3) <= 1
 0 <= X(0,3,1,4) <= 1
 0 <= X(0,4,0,3) <= 1
 0 <= X(0,4,0,4) <= 1
 0 <= X(0,4,1,3) <= 1
 0 <= X(0,4,1,4) <= 1
 0 <= X(1,0,0,3) <= 1
 0 <= X(1,0,0,4) <= 1
 0 <= X(1,0,1,3) <= 1
 0 <= X(1,0,1,4) <= 1
 0 <= X(1,1,0,3) <= 1
 0 <= X(1,1,0,4) <= 1
 0 <= X(1,1,1,3) <= 1
 0 <= X(1,1,1,4) <= 1
 0 <= X(1,2,0,3) <= 1
 0 <= X(1,2,0,4) <= 1
 0 <= X(1,2,1,3) <= 1
 0 <= X(1,2,1,4) <= 1
 0 <= X(1,3,0,3) <= 1
 0 <= X(1,3,0,4) <= 1
 0 <= X(1,3,1,3) <= 1
 0 <= X(1,3,1,4) <= 1
 0 <= X(1,4,0,3) <= 1
 0 <= X(1,4,0,4) <= 1
 0 <= X(1,4,1,3) <= 1
 0 <= X(1,4,1,4) <= 1
 0 <= X(2,0,0,3) <= 1
 0 <= X(2,0,0,4) <= 1
 0 <= X(2,0,1,3) <= 1
 0 <= X(2,0,1,4) <= 1
 0 <= X(2,1,0,3) <= 1
 0 <= X(2,1,0,4) <= 1
 0 <= X(2,1,1,3) <= 1
 0 <= X(2,1,1,4) <= 1
 0 <= X(2,2,0,3) <= 1
 0 <= X(2,2,0,4) <= 1
 0 <= X(2,2,1,3) <= 1
 0 <= X(2,2,1,4) <= 1
 0 <= X(2,3,0,3) <= 1
 0 <= X(2,3,0,4) <= 1
 0 <= X(2,3,1,3) <= 1
 0 <= X(2,3,1,4) <= 1
 0 <= X(2,4,0,3) <= 1
 0 <= X(2,4,0,4) <= 1
 0 <= X(2,4,1,3) <= 1
 0 <= X(2,4,1,4) <= 1
 0 <= X(3,0,0,3) <= 1
 0 <= X(3,0,0,4) <= 1
 0 <= X(3,0,1,3) <= 1
 0 <= X(3,0,1,4) <= 1
 0 <= X(3,1,0,3) <= 1
 0 <= X(3,1,0,4) <= 1
 0 <= X(3,1,1,3) <= 1
 0 <= X(3,1,1,4) <= 1
 0 <= X(3,2,0,3) <= 1
 0 <= X(3,2,0,4) <= 1
 0 <= X(3,2,1,3) <= 1
 0 <= X(3,2,1,4) <= 1
 0 <= X(3,3,0,3) <= 1
 0 <= X(3,3,0,4) <= 1
 0 <= X(3,3,1,3) <= 1
 0 <= X(3,3,1,4) <= 1
 0 <= X(3,4,0,3) <= 1
 0 <= X(3,4,0,4) <= 1
 0 <= X(3,4,1,3) <= 1
 0 <= X(3,4,1,4) <= 1
 0 <= X(4,0,0,3) <= 1
 0 <= X(4,0,0,4) <= 1
 0 <= X(4,0,1,3) <= 1
 0 <= X(4,0,1,4) <= 1
 0 <= X(4,1,0,3) <= 1
 0 <= X(4,1,0,4) <= 1
 0 <= X(4,1,1,3) <= 1
 0 <= X(4,1,1,4) <= 1
 0 <= X(4,2,0,3) <= 1
 0 <= X(4,2,0,4) <= 1
 0 <= X(4,2,1,3) <= 1
 0 <= X(4,2,1,4) <= 1
 0 <= X(4,3,0,3) <= 1
 0 <= X(4,3,0,4) <= 1
 0 <= X(4,3,1,3) <= 1
 0 <= X(4,3,1,4) <= 1
 0 <= X(4,4,0,3) <= 1
 0 <= X(4,4,0,4) <= 1
 0 <= X(4,4,1,3) <= 1
 0 <= X(4,4,1,4) <= 1
Binaries
 X(0,0,0,3)  X(0,0,0,4)  X(0,0,1,3)  X(0,0,1,4)  X(0,1,0,3)  X(0,1,0,4) 
 X(0,1,1,3)  X(0,1,1,4)  X(0,2,0,3)  X(0,2,0,4)  X(0,2,1,3)  X(0,2,1,4) 
 X(0,3,0,3)  X(0,3,0,4)  X(0,3,1,3)  X(0,3,1,4)  X(0,4,0,3)  X(0,4,0,4) 
 X(0,4,1,3)  X(0,4,1,4)  X(1,0,0,3)  X(1,0,0,4)  X(1,0,1,3)  X(1,0,1,4) 
 X(1,1,0,3)  X(1,1,0,4)  X(1,1,1,3)  X(1,1,1,4)  X(1,2,0,3)  X(1,2,0,4) 
 X(1,2,1,3)  X(1,2,1,4)  X(1,3,0,3)  X(1,3,0,4)  X(1,3,1,3)  X(1,3,1,4) 
 X(1,4,0,3)  X(1,4,0,4)  X(1,4,1,3)  X(1,4,1,4)  X(2,0,0,3)  X(2,0,0,4) 
 X(2,0,1,3)  X(2,0,1,4)  X(2,1,0,3)  X(2,1,0,4)  X(2,1,1,3)  X(2,1,1,4) 
 X(2,2,0,3)  X(2,2,0,4)  X(2,2,1,3)  X(2,2,1,4)  X(2,3,0,3)  X(2,3,0,4) 
 X(2,3,1,3)  X(2,3,1,4)  X(2,4,0,3)  X(2,4,0,4)  X(2,4,1,3)  X(2,4,1,4) 
 X(3,0,0,3)  X(3,0,0,4)  X(3,0,1,3)  X(3,0,1,4)  X(3,1,0,3)  X(3,1,0,4) 
 X(3,1,1,3)  X(3,1,1,4)  X(3,2,0,3)  X(3,2,0,4)  X(3,2,1,3)  X(3,2,1,4) 
 X(3,3,0,3)  X(3,3,0,4)  X(3,3,1,3)  X(3,3,1,4)  X(3,4,0,3)  X(3,4,0,4) 
 X(3,4,1,3)  X(3,4,1,4)  X(4,0,0,3)  X(4,0,0,4)  X(4,0,1,3)  X(4,0,1,4) 
 X(4,1,0,3)  X(4,1,0,4)  X(4,1,1,3)  X(4,1,1,4)  X(4,2,0,3)  X(4,2,0,4) 
 X(4,2,1,3)  X(4,2,1,4)  X(4,3,0,3)  X(4,3,0,4)  X(4,3,1,3)  X(4,3,1,4) 
 X(4,4,0,3)  X(4,4,0,4)  X(4,4,1,3)  X(4,4,1,4) 
End
